% Generated FlatZinc statistics:
%%%mzn-stat: paths=0
%%%mzn-stat: flatBoolVars=608
%%%mzn-stat: flatIntVars=8545
%%%mzn-stat: flatIntConstraints=16469
%%%mzn-stat: evaluatedReifiedConstraints=5476
%%%mzn-stat: evaluatedHalfReifiedConstraints=1496
%%%mzn-stat: method="minimize"
%%%mzn-stat: flatTime=0.732819
%%%mzn-stat-end
%%%mzn-stat: objective=12321
%%%mzn-stat: objectiveBound=6865
%%%mzn-stat: nodes=1193
%%%mzn-stat: solveTime=59.5267
%%%mzn-stat-end
end = 70
carga_por_operario = [59, 58, 58]
desbalance = 1
Job 1:  18(op:1)  51(op:1)  59(op:2)  63(op:1)  64(op:2)
Job 2:  12(op:1)  31(op:1)  41(op:2)  66(op:3)  69(op:2)
Job 3:   0(op:1)   5(op:2)   8(op:3)  10(op:3)  39(op:1)
Job 4:  14(op:1)  23(op:1)  49(op:2)  56(op:2)  62(op:3)
Job 5:   3(op:1)   9(op:2)  30(op:2)  40(op:3)  51(op:3)
Job 6:  15(op:1)  26(op:1)  39(op:3)  48(op:3)  55(op:3)
Job 7:  17(op:1)  18(op:3)  24(op:2)  33(op:2)  43(op:1)
Job 8:   9(op:1)  11(op:2)  15(op:2)  23(op:3)  31(op:3)
----------
%%%mzn-stat: objective=12321
%%%mzn-stat: objectiveBound=6865
%%%mzn-stat: nodes=1193
%%%mzn-stat: solveTime=59.5267
%%%mzn-stat-end
%%%mzn-stat: nSolutions=1
%%%mzn-stat-end
